; benchmark generated from python API
(set-info :status unknown)
(declare-fun strlen_72_64 () (_ BitVec 64))
(declare-fun args_0_8 () (_ BitVec 8))
(declare-fun strlen_75_64 () (_ BitVec 64))
(declare-fun args_1_8 () (_ BitVec 8))
(declare-fun sigaction_oldact_171_1216 () (_ BitVec 1216))
(declare-fun sigaction_oldact_176_1216 () (_ BitVec 1216))
(declare-fun sigaction_oldact_186_1216 () (_ BitVec 1216))
(declare-fun sigaction_oldact_200_1216 () (_ BitVec 1216))
(declare-fun sigaction_oldact_225_1216 () (_ BitVec 1216))
(declare-fun sigaction_oldact_273_1216 () (_ BitVec 1216))
(declare-fun sigaction_oldact_359_1216 () (_ BitVec 1216))
(declare-fun sigaction_oldact_565_1216 () (_ BitVec 1216))
(declare-fun sigaction_oldact_910_1216 () (_ BitVec 1216))
(assert
 (let (($x351 (= (_ bv1 64) strlen_72_64)))
 (not $x351)))
(assert
 (let ((?x82 (bvadd (_ bv576460752303357824 64) strlen_72_64)))
 (let (($x69 (= (_ bv0 8) args_0_8)))
 (let ((?x46 (ite $x69 (_ bv576460752303357824 64) (_ bv576460752303357825 64))))
 (= ?x46 ?x82)))))
(assert
 (let (($x347 (= (_ bv0 8) args_1_8)))
 (let ((?x355 (ite $x347 (_ bv576460752303357826 64) (_ bv576460752303357827 64))))
 (let ((?x356 (bvsub ?x355 (_ bv576460752303357826 64))))
 (= ?x356 strlen_75_64)))))
(assert
 (let ((?x1831 ((_ extract 127 120) sigaction_oldact_171_1216)))
 (let ((?x2319 (bvand ?x1831 (_ bv4 8))))
 (and (distinct (_ bv0 8) ?x2319) true))))
(assert
 (let ((?x2276 ((_ extract 127 120) sigaction_oldact_176_1216)))
 (let ((?x2398 (bvand ?x2276 (_ bv4 8))))
 (= (_ bv0 8) ?x2398))))
(assert
 (let ((?x2788 ((_ extract 127 120) sigaction_oldact_186_1216)))
 (let ((?x2813 (bvand ?x2788 (_ bv4 8))))
 (= (_ bv0 8) ?x2813))))
(assert
 (let ((?x3598 ((_ extract 127 120) sigaction_oldact_200_1216)))
 (let ((?x3623 (bvand ?x3598 (_ bv4 8))))
 (= (_ bv0 8) ?x3623))))
(assert
 (let ((?x5221 ((_ extract 127 120) sigaction_oldact_225_1216)))
 (let ((?x5246 (bvand ?x5221 (_ bv4 8))))
 (= (_ bv0 8) ?x5246))))
(assert
 (let ((?x8278 ((_ extract 127 120) sigaction_oldact_273_1216)))
 (let ((?x8303 (bvand ?x8278 (_ bv4 8))))
 (= (_ bv0 8) ?x8303))))
(assert
 (let ((?x14132 ((_ extract 127 120) sigaction_oldact_359_1216)))
 (let ((?x14142 (bvand ?x14132 (_ bv4 8))))
 (and (distinct (_ bv0 8) ?x14142) true))))
(assert
 (let ((?x28978 ((_ extract 127 120) sigaction_oldact_565_1216)))
 (let ((?x29003 (bvand ?x28978 (_ bv4 8))))
 (= (_ bv0 8) ?x29003))))
(assert
 (let ((?x52081 ((_ extract 127 120) sigaction_oldact_910_1216)))
 (let ((?x6250 (bvand ?x52081 (_ bv4 8))))
 (= (_ bv0 8) ?x6250))))
(minimize sigaction_oldact_186_1216)
(minimize args_1_8)
(maximize sigaction_oldact_565_1216)
(maximize sigaction_oldact_359_1216)
(maximize args_0_8)
(maximize sigaction_oldact_273_1216)
(minimize strlen_72_64)
(maximize sigaction_oldact_171_1216)
(minimize sigaction_oldact_565_1216)
(maximize sigaction_oldact_186_1216)
(maximize sigaction_oldact_910_1216)
(minimize sigaction_oldact_273_1216)
(maximize strlen_72_64)
(minimize sigaction_oldact_359_1216)
(minimize sigaction_oldact_225_1216)
(maximize sigaction_oldact_200_1216)
(minimize sigaction_oldact_171_1216)
(maximize sigaction_oldact_225_1216)
(minimize sigaction_oldact_176_1216)
(maximize args_1_8)
(maximize strlen_75_64)
(minimize sigaction_oldact_910_1216)
(minimize args_0_8)
(minimize sigaction_oldact_200_1216)
(check-sat)
(get-objectives)
